p cnf 33 91
a 2 10 0
e 1 3 4 5 6 7 8 9 11 12 13 14 15 16 17 18 19 20 21 22 23 24 25 26 27 28 29 30 31 32 33 0
-2 -1 0
-2 1 0
4 -2 0
4 3 0
2 -3 -4 0
-7 5 0
-7 6 0
-5 -6 7 0
-8 -4 0
-8 -7 0
4 7 8 0
-10 1 -11 0
10 -1 -11 0
-10 -1 11 0
10 1 11 0
-9 -11 -12 0
9 11 -12 0
-9 11 12 0
9 -11 12 0
-13 -8 0
-13 12 0
8 -12 13 0
10 -5 -14 0
-10 5 -14 0
10 5 14 0
-10 -5 14 0
-2 -14 -15 0
2 14 -15 0
-2 14 15 0
2 -14 15 0
16 -13 0
16 15 0
13 -15 -16 0
6 9 -17 0
-6 -9 -17 0
6 -9 17 0
-6 9 17 0
18 -3 0
18 3 0
19 2 0
19 5 0
-2 -5 -19 0
-18 19 -20 0
18 -19 -20 0
-18 -19 20 0
18 19 20 0
21 -10 0
21 5 0
10 -5 -21 0
22 9 0
22 14 0
-9 -14 -22 0
-21 22 -23 0
21 -22 -23 0
-21 -22 23 0
21 22 23 0
-20 23 -24 0
20 -23 -24 0
-20 -23 24 0
20 23 24 0
-25 -17 0
-25 24 0
17 -24 25 0
-27 26 0
-27 1 0
-26 -1 27 0
28 2 0
28 27 0
-2 -27 -28 0
30 26 0
30 -29 0
-26 29 -30 0
-31 28 0
-31 30 0
-28 -30 31 0
32 25 0
32 31 0
-25 -31 -32 0
-16 -32 -33 0
16 32 -33 0
-16 32 33 0
16 -32 33 0
24 3 -2 -33 -5 -7 1 0
-2 19 33 -5 29 15 31 -26 0
-19 6 -1 7 0
2 14 -11 10 0
-15 23 16 13 -22 0
22 -17 -33 16 23 0
-31 20 18 -11 0
-18 29 -16 25 -13 0
33 0
